Route #1: 172 86 174 127 50 141 105 34 120 9 74 15
Route #2: 153 167 144 124 121 166 35 133 118 65 178 5 25
Route #3: 66 51 93 45 139 22 148 56 49 180 71 64 149 159
Route #4: 48 126 138 170 147 77 47 58 63 57 168 142 128
Route #5: 154 131 132 11 7 134 161 26 110 106 24 33 32
Route #6: 89 60 38 16 186 8 91 2 145 164 104 117 19 122 73
Route #7: 102 101 115 143 157 80 114 179 175 97 41 23
Route #8: 53 116 119 37 62 158 18 81 111 150 4 162
Route #9: 40 30 151 107 82 76 79 135 84 52 137 88 165
Route #10: 68 112 39 42 44 109 171 182 54 87 43 125
Route #11: 155 6 163 169 146 96 92 46 129 75 13 130
Route #12: 100 85 28 90 99 152 123 140 103 98 83 176
Route #13: 29 3 31 94 183 184 10 78 160 70 108 27 61
Route #14: 185 72 136 67 21 113 55 95 12 181 36 20 17
Route #15: 173 69 156 59 177 14
